c XOR 2 substituted formula
c
c Pebbling formula of:
c
c Generated with `cnfgen` (C) Massimo Lauria <lauria@kth.se>
c https://github.com/MassimoLauria/cnfgen.git
c varname 1 d00
c varname 2 d01
c varname 3 d10
c varname 4 d11
c varname 5 d20
c varname 6 d21
c varname 7 d30
c varname 8 d31
c varname 9 d40
c varname 10 d41
c varname 11 d50
c varname 12 d51
c varname 13 d60
c varname 14 d61
c varname 15 d70
c varname 16 d71
c varname 17 u00
c varname 18 u01
c varname 19 u10
c varname 20 u11
c varname 21 u20
c varname 22 u21
c varname 23 u30
c varname 24 u31
c varname 25 u40
c varname 26 u41
c varname 27 u50
c varname 28 u51
c varname 29 u60
c varname 30 u61
c varname 31 u70
c varname 32 u71
p cnf 32 92
1 2 0
-1 -2 0
1 -2 3 4 0
1 -2 -3 -4 0
-1 2 3 4 0
-1 2 -3 -4 0
3 -4 5 6 0
3 -4 -5 -6 0
-3 4 5 6 0
-3 4 -5 -6 0
5 -6 7 8 0
5 -6 -7 -8 0
-5 6 7 8 0
-5 6 -7 -8 0
7 -8 9 10 0
7 -8 -9 -10 0
-7 8 9 10 0
-7 8 -9 -10 0
9 -10 11 12 0
9 -10 -11 -12 0
-9 10 11 12 0
-9 10 -11 -12 0
11 -12 13 14 0
11 -12 -13 -14 0
-11 12 13 14 0
-11 12 -13 -14 0
13 -14 15 16 0
13 -14 -15 -16 0
-13 14 15 16 0
-13 14 -15 -16 0
1 -2 17 18 0
1 -2 -17 -18 0
-1 2 17 18 0
-1 2 -17 -18 0
17 -18 9 -10 19 20 0
17 -18 9 -10 -19 -20 0
17 -18 -9 10 19 20 0
17 -18 -9 10 -19 -20 0
-17 18 9 -10 19 20 0
-17 18 9 -10 -19 -20 0
-17 18 -9 10 19 20 0
-17 18 -9 10 -19 -20 0
19 -20 5 -6 21 22 0
19 -20 5 -6 -21 -22 0
19 -20 -5 6 21 22 0
19 -20 -5 6 -21 -22 0
-19 20 5 -6 21 22 0
-19 20 5 -6 -21 -22 0
-19 20 -5 6 21 22 0
-19 20 -5 6 -21 -22 0
21 -22 13 -14 23 24 0
21 -22 13 -14 -23 -24 0
21 -22 -13 14 23 24 0
21 -22 -13 14 -23 -24 0
-21 22 13 -14 23 24 0
-21 22 13 -14 -23 -24 0
-21 22 -13 14 23 24 0
-21 22 -13 14 -23 -24 0
3 -4 23 -24 25 26 0
3 -4 23 -24 -25 -26 0
3 -4 -23 24 25 26 0
3 -4 -23 24 -25 -26 0
-3 4 23 -24 25 26 0
-3 4 23 -24 -25 -26 0
-3 4 -23 24 25 26 0
-3 4 -23 24 -25 -26 0
25 -26 11 -12 27 28 0
25 -26 11 -12 -27 -28 0
25 -26 -11 12 27 28 0
25 -26 -11 12 -27 -28 0
-25 26 11 -12 27 28 0
-25 26 11 -12 -27 -28 0
-25 26 -11 12 27 28 0
-25 26 -11 12 -27 -28 0
7 -8 27 -28 29 30 0
7 -8 27 -28 -29 -30 0
7 -8 -27 28 29 30 0
7 -8 -27 28 -29 -30 0
-7 8 27 -28 29 30 0
-7 8 27 -28 -29 -30 0
-7 8 -27 28 29 30 0
-7 8 -27 28 -29 -30 0
15 -16 29 -30 31 32 0
15 -16 29 -30 -31 -32 0
15 -16 -29 30 31 32 0
15 -16 -29 30 -31 -32 0
-15 16 29 -30 31 32 0
-15 16 29 -30 -31 -32 0
-15 16 -29 30 31 32 0
-15 16 -29 30 -31 -32 0
31 -32 0
-31 32 0
